Version identifier: 22.1.0.0 | 2022-03-09 | 1a383f8ce
CPXPARAM_Read_DataCheck                          1
Tried aggregator 4 times.
MIP Presolve eliminated 26760 rows and 3685 columns.
MIP Presolve modified 456 coefficients.
Aggregator did 23872 substitutions.
Reduced MIP has 3884 rows, 24595 columns, and 53081 nonzeros.
Reduced MIP has 24571 binaries, 24 generals, 0 SOSs, and 0 indicators.
Presolve time = 0.23 sec. (255.27 ticks)
Tried aggregator 1 time.
Detecting symmetries...
Reduced MIP has 3884 rows, 24595 columns, and 53081 nonzeros.
Reduced MIP has 24571 binaries, 24 generals, 0 SOSs, and 0 indicators.
Presolve time = 0.04 sec. (35.94 ticks)
Probing fixed 37 vars, tightened 0 bounds.
Probing time = 0.10 sec. (13.11 ticks)
Clique table members: 50045.
MIP emphasis: balance optimality and feasibility.
MIP search method: dynamic search.
Parallel mode: deterministic, using up to 8 threads.
Root relaxation solution time = 0.31 sec. (203.74 ticks)

        Nodes                                         Cuts/
   Node  Left     Objective  IInf  Best Integer    Best Bound    ItCnt     Gap

      0     0       24.4413  3133                     24.4413     3582         
      0     0       41.0000   605                    Cuts: 39     7077         
      0     0       41.0000   547                    Cuts: 27     9445         
      0     0       41.0000   312                ZeroHalf: 40    12799         
      0     0       41.0000   509                ZeroHalf: 26    18702         
Heuristic still looking.
*     0+    0                           43.0000       41.0000             4.65%
      0     2       41.0000   443       43.0000       41.0000    18702    4.65%
Elapsed time = 67.95 sec. (31437.76 ticks, tree = 0.02 MB, solutions = 1)
      1     3       41.0000   317       43.0000       41.0000    22313    4.65%
      2     4       41.0000   301       43.0000       41.0000    24314    4.65%
      3     5       41.0000   253       43.0000       41.0000    28086    4.65%
      5     5       41.0000   273       43.0000       41.0000    26030    4.65%
      6     3       41.0000   526       43.0000       41.0000    24878    4.65%
      7     7       41.0000   281       43.0000       41.0000    33327    4.65%
      8     7       41.0000   273       43.0000       41.0000    34148    4.65%
     11    10       41.0000   298       43.0000       41.0000    44158    4.65%
     13    11       41.0000   470       43.0000       41.0000    47534    4.65%
     32    18       41.0000   621       43.0000       41.0000    68877    4.65%
Elapsed time = 85.94 sec. (39957.38 ticks, tree = 0.12 MB, solutions = 1)
     46    22       41.0000   407       43.0000       41.0000    82183    4.65%
     88    51       41.0000   157       43.0000       41.0000   136352    4.65%
    141   125       41.0000   144       43.0000       41.0000   366383    4.65%
    201   118       41.0000   504       43.0000       41.0000   344678    4.65%
*   320   204      integral     0       41.0000       41.0000   507705    0.00%
    372   203       41.1429   300       41.0000       41.0000   489299    0.00%

Clique cuts applied:  1
Zero-half cuts applied:  56
Gomory fractional cuts applied:  21

Root node processing (before b&c):
  Real time             =   67.86 sec. (31403.17 ticks)
Parallel b&c, 8 threads:
  Real time             =   37.19 sec. (14596.89 ticks)
  Sync time (average)   =    8.87 sec.
  Wait time (average)   =    0.00 sec.
                          ------------
Total (root+branch&cut) =  105.05 sec. (46000.06 ticks)
